p cnf 11 46 
c Factors encoded in variables 1-6 and 7-11
c Target number: 1073
c Factors: 37 x 29
-3 10 -8 0
4 2 10 -9 0
-4 3 -10 9 8 0
4 2 10 9 -8 0
4 3 -2 10 0
3 -2 9 -8 0
-3 -2 -10 -9 -8 0
-4 -3 -2 10 0
-4 10 -9 -8 0
-4 -8 0
10 8 0
3 -10 -9 8 0
3 -2 10 -9 0
4 10 -9 0
-4 10 9 8 0
-4 -3 -2 9 0
-4 -3 -10 -9 8 0
7 0
4 -3 -2 10 -9 -8 0
10 9 0
2 10 -8 0
-4 -10 -9 8 0
-5 0
4 -10 9 8 0
4 9 8 0
-4 3 2 10 0
4 -2 9 -8 0
4 3 2 0
4 -2 -10 -9 8 0
-4 -10 8 0
-4 -2 -9 8 0
-4 -3 -10 -9 0
-4 3 -9 -8 0
1 0
4 -3 -2 -10 0
-3 9 0
3 2 10 0
4 3 2 -10 0
-2 8 0
4 2 -10 9 8 0
6 0
-4 -2 -10 9 -8 0
3 -9 0
2 -8 0
4 -10 -9 -8 0
11 0
